100
1000
751
762
259
861
863
215
631
103
813
150
19
846
106
734
665
802
578
13
251
143
304
273
805
995
212
9
398
681
776
984
566
739
602
84
384
222
559
800
766
616
853
483
242
552
111
517
143
652
365
185
279
51
88
145
313
1000
153
178
361
456
990
28
948
732
408
374
31
945
253
176
703
74
984
829
582
560
574
214
848
284
52
997
52
503
603
586
2
133
992
492
328
771
575
170
812
958
609
982
991
72
